logs/miss/max/miss-07-15-1.sol
# Objective value = 14
x0,1_1 0
x0,1_7 0
x0,1_8 0
x0,1_9 0
x0,1_13 0
x0,1_14 0
x0,1_15 0
x0,1_17 0
x0,1_21 0
x0,1_22 0
x0,1_29 0
x0,1_32 0
x0,1_44 0
x0,1_51 0
x0,2_1 0
x0,2_7 0
x0,2_8 0
x0,2_9 0
x0,2_13 0
x0,2_14 0
x0,2_15 0
x0,2_17 0
x0,2_21 0
x0,2_22 0
x0,2_29 1
x0,2_32 0
x0,2_44 0
x0,2_51 0
x0,3_1 0
x0,3_7 0
x0,3_8 0
x0,3_9 0
x0,3_13 0
x0,3_14 0
x0,3_15 0
x0,3_17 0
x0,3_21 0
x0,3_22 0
x0,3_29 0
x0,3_32 0
x0,3_44 0
x0,3_51 0
x0,4_1 0
x0,4_7 0
x0,4_8 0
x0,4_9 0
x0,4_13 0
x0,4_14 0
x0,4_15 0
x0,4_17 0
x0,4_21 0
x0,4_22 0
x0,4_29 0
x0,4_32 0
x0,4_44 0
x0,4_51 0
x0,5_1 0
x0,5_7 0
x0,5_8 0
x0,5_9 0
x0,5_13 0
x0,5_14 0
x0,5_15 0
x0,5_17 0
x0,5_21 0
x0,5_22 0
x0,5_29 0
x0,5_32 0
x0,5_44 1
x0,5_51 0
x0,6_1 0
x0,6_7 0
x0,6_8 0
x0,6_9 0
x0,6_13 0
x0,6_14 0
x0,6_15 0
x0,6_17 0
x0,6_21 0
x0,6_22 0
x0,6_29 0
x0,6_32 0
x0,6_44 0
x0,6_51 1
x1,2_1 0
x1,2_7 0
x1,2_8 0
x1,2_9 0
x1,2_13 0
x1,2_14 0
x1,2_15 0
x1,2_17 1
x1,2_21 0
x1,2_22 0
x1,2_29 0
x1,2_32 0
x1,2_44 0
x1,2_51 0
x1,3_1 0
x1,3_7 0
x1,3_8 0
x1,3_9 0
x1,3_13 0
x1,3_14 0
x1,3_15 0
x1,3_17 0
x1,3_21 0
x1,3_22 0
x1,3_29 0
x1,3_32 0
x1,3_44 0
x1,3_51 0
x1,4_1 0
x1,4_7 0
x1,4_8 0
x1,4_9 0
x1,4_13 0
x1,4_14 0
x1,4_15 0
x1,4_17 0
x1,4_21 0
x1,4_22 0
x1,4_29 0
x1,4_32 0
x1,4_44 0
x1,4_51 0
x1,5_1 0
x1,5_7 0
x1,5_8 0
x1,5_9 0
x1,5_13 0
x1,5_14 0
x1,5_15 0
x1,5_17 0
x1,5_21 0
x1,5_22 0
x1,5_29 0
x1,5_32 1
x1,5_44 0
x1,5_51 0
x1,6_1 0
x1,6_7 0
x1,6_8 0
x1,6_9 0
x1,6_13 0
x1,6_14 0
x1,6_15 0
x1,6_17 0
x1,6_21 0
x1,6_22 0
x1,6_29 0
x1,6_32 0
x1,6_44 0
x1,6_51 0
x2,3_1 1
x2,3_7 0
x2,3_8 0
x2,3_9 0
x2,3_13 0
x2,3_14 0
x2,3_15 0
x2,3_17 0
x2,3_21 0
x2,3_22 0
x2,3_29 0
x2,3_32 0
x2,3_44 0
x2,3_51 0
x2,4_1 0
x2,4_7 0
x2,4_8 0
x2,4_9 1
x2,4_13 0
x2,4_14 0
x2,4_15 0
x2,4_17 0
x2,4_21 0
x2,4_22 0
x2,4_29 0
x2,4_32 0
x2,4_44 0
x2,4_51 0
x2,5_1 0
x2,5_7 0
x2,5_8 0
x2,5_9 0
x2,5_13 0
x2,5_14 0
x2,5_15 1
x2,5_17 0
x2,5_21 0
x2,5_22 0
x2,5_29 0
x2,5_32 0
x2,5_44 0
x2,5_51 0
x2,6_1 0
x2,6_7 0
x2,6_8 0
x2,6_9 0
x2,6_13 0
x2,6_14 0
x2,6_15 0
x2,6_17 0
x2,6_21 0
x2,6_22 1
x2,6_29 0
x2,6_32 0
x2,6_44 0
x2,6_51 0
x3,4_1 0
x3,4_7 0
x3,4_8 1
x3,4_9 0
x3,4_13 0
x3,4_14 0
x3,4_15 0
x3,4_17 0
x3,4_21 0
x3,4_22 0
x3,4_29 0
x3,4_32 0
x3,4_44 0
x3,4_51 0
x3,5_1 0
x3,5_7 0
x3,5_8 0
x3,5_9 0
x3,5_13 0
x3,5_14 1
x3,5_15 0
x3,5_17 0
x3,5_21 0
x3,5_22 0
x3,5_29 0
x3,5_32 0
x3,5_44 0
x3,5_51 0
x3,6_1 0
x3,6_7 0
x3,6_8 0
x3,6_9 0
x3,6_13 0
x3,6_14 0
x3,6_15 0
x3,6_17 0
x3,6_21 1
x3,6_22 0
x3,6_29 0
x3,6_32 0
x3,6_44 0
x3,6_51 0
x4,5_1 0
x4,5_7 0
x4,5_8 0
x4,5_9 0
x4,5_13 0
x4,5_14 0
x4,5_15 0
x4,5_17 0
x4,5_21 0
x4,5_22 0
x4,5_29 0
x4,5_32 0
x4,5_44 0
x4,5_51 0
x4,6_1 0
x4,6_7 0
x4,6_8 0
x4,6_9 0
x4,6_13 1
x4,6_14 0
x4,6_15 0
x4,6_17 0
x4,6_21 0
x4,6_22 0
x4,6_29 0
x4,6_32 0
x4,6_44 0
x4,6_51 0
x5,6_1 0
x5,6_7 1
x5,6_8 0
x5,6_9 0
x5,6_13 0
x5,6_14 0
x5,6_15 0
x5,6_17 0
x5,6_21 0
x5,6_22 0
x5,6_29 0
x5,6_32 0
x5,6_44 0
x5,6_51 0
p0 4
p1 16
p2 33
p3 34
p4 42
p5 48
p6 55
